qe/outputs/qe/qe_queries_cbrdelay/T=5,eliminate=[I_0,I_1,I_2,I_3,I_4,ideal].smt2
; benchmark generated from python API
(set-info :status unknown)
(declare-fun L_0 () Real)
(declare-fun C () Real)
(declare-fun B () Real)
(declare-fun S_1 () Real)
(declare-fun A_1 () Real)
(declare-fun L_1 () Real)
(declare-fun S_4 () Real)
(declare-fun L_3 () Real)
(declare-fun A_4 () Real)
(declare-fun L_4 () Real)
(declare-fun S_3 () Real)
(declare-fun L_2 () Real)
(declare-fun A_3 () Real)
(declare-fun S_2 () Real)
(declare-fun A_2 () Real)
(declare-fun S_0 () Real)
(declare-fun A_0 () Real)
(assert
 (let (($x34 (>= L_0 0.0)))
 (let (($x484 (>= C 5.0)))
 (let (($x576 (>= B 5.0)))
 (let (($x51 (= L_1 L_0)))
 (let (($x1677 (or $x51 (not (<= (+ A_1 (* (- 1.0) L_0) (* (- 1.0) S_1)) B)))))
 (let (($x81 (= L_4 L_3)))
 (let (($x1694 (or $x81 (not (<= (+ A_4 (* (- 1.0) L_3) (* (- 1.0) S_4)) B)))))
 (let (($x855 (<= (+ A_4 (* (- 1.0) L_3) (* (- 1.0) S_4)) B)))
 (let (($x1453 (not (= L_3 L_4))))
 (let (($x860 (<= (+ A_3 (* (- 1.0) L_2) (* (- 1.0) S_3)) B)))
 (let (($x1100 (not (= L_2 L_3))))
 (let (($x865 (<= (+ A_2 (* (- 1.0) L_1) (* (- 1.0) S_2)) B)))
 (let (($x1245 (not (= L_1 L_2))))
 (let ((?x604 (+ S_2 C)))
 (let ((?x481 (* (- 1.0) L_3)))
 (let ((?x482 (+ A_3 ?x481)))
 (let (($x870 (<= (+ A_1 (* (- 1.0) L_0) (* (- 1.0) S_1)) B)))
 (let (($x1052 (not (= L_0 L_1))))
 (let (($x61 (= L_2 L_1)))
 (let (($x71 (= L_3 L_2)))
 (let ((?x580 (+ S_0 C)))
 (let ((?x507 (* (- 1.0) L_1)))
 (let ((?x508 (+ A_1 ?x507)))
 (let ((?x979 (+ S_3 C)))
 (let ((?x468 (* (- 1.0) L_4)))
 (let ((?x469 (+ A_4 ?x468)))
 (let ((?x709 (+ S_1 C)))
 (let ((?x494 (* (- 1.0) L_2)))
 (let ((?x495 (+ A_2 ?x494)))
 (let (($x119 (>= A_1 A_0)))
 (let (($x120 (>= A_2 A_1)))
 (let (($x121 (>= A_3 A_2)))
 (let (($x122 (>= A_4 A_3)))
 (and $x122 $x121 $x120 $x119 (<= S_0 (+ A_0 (* (- 1.0) L_0))) (= S_2 (ite (<= ?x495 ?x709) ?x495 ?x709)) (= S_4 (ite (<= ?x469 ?x979) ?x469 ?x979)) (= S_1 (ite (<= ?x508 ?x580) ?x508 ?x580)) (or $x71 (= L_3 (+ A_3 (* (- 1.0) S_3) (* (- 1.0) B)))) (or $x61 (= L_2 (+ A_2 (* (- 1.0) S_2) (* (- 1.0) B)))) (or $x51 (= L_1 (+ A_1 (* (- 1.0) S_1) (* (- 1.0) B)))) (or $x1052 $x870) (= S_3 (ite (<= ?x482 ?x604) ?x482 ?x604)) (or $x61 (not $x865)) (or $x1245 $x865) (or $x81 (= L_4 (+ A_4 (* (- 1.0) S_4) (* (- 1.0) B)))) (or $x71 (not $x860)) (or $x1100 $x860) (or $x1453 $x855) $x1694 $x1677 $x576 $x484 $x34)))))))))))))))))))))))))))))))))))
(check-sat)
